53639
15 52 631
52 45 722
45 11 436
11 25 545
25 31 299
31 27 4460
27 1 4123
1 33 7621
33 42 4807
42 2 1722
2 14 433
14 9 471
9 12 723
12 18 768
18 4 606
4 30 380
30 47 944
47 34 702
34 54 401
54 26 967
26 55 397
55 28 487
28 6 404
6 3 385
3 43 1096
43 40 1279
40 7 1176
7 51 770
51 13 644
13 5 723
5 37 467
37 20 714
20 50 763
50 24 868
24 35 296
35 41 760
41 32 362
32 8 678
8 38 368
38 44 690
44 19 1282
19 49 934
49 48 761
48 17 415
17 53 938
53 23 388
23 21 176
21 29 516
29 22 544
22 10 117
10 16 734
16 39 451
39 46 214
46 36 402
36 15 679
